webassembly/ejemplos_dzn/folder7_json_45.dzn
TERM = { '.', 's(2)', 's(4)', 'in_1', 'local_1', 'in_2', 'in_4', 'in_3', 's(1)', 's(0)', 's(3)', 'in_0'};
null = '.';
s = 7;
n = 10;
ndeps = 3;
max_registers_sz = 3;
NR = 0;
registers = [| |];
dependencies = [|'i32.store8_0', 'i32.store8_1', |'i32.store8_1', 'i32.load8_s_2', |'i32.load8_s_2', 'call[function_index(0)]_5'|];
GET_ENUM = { GET1, GET2, GET3};
SET_ENUM = { SET1, SET2, SET3};
TEE_ENUM = { TEE1, TEE2, TEE3};
N = 7;
OP = { 'i32.add_0', 'i32.const_0', 'call[function_index(0)]_5', 'i32.store8_0', 'i32.store8_1', 'i32.load8_s_2', 'local.get_0' };
in_ops = [2, 0, 2, 2, 2, 1, 0 ];
out_ops = [1, 1, 2, 0, 0, 1, 1 ];
in1 = ['s(2)', '.', 's(4)', 'in_0', 'in_2', 'in_4', '.' ];
in2 = ['s(1)', '.', 'local_1', 'in_1', 'in_3', '.', '.' ];
in3 = ['.', '.', '.', '.', '.', '.', '.' ];
out1 = ['s(3)', 's(4)', 's(2)', '.', '.', 's(0)', 'local_1' ];
out2 = ['.', '.', 's(1)', '.', '.', '.', '.' ];
out3 = ['.', '.', '.', '.', '.', '.', '.' ];
comm = [true, false, false, false, false, false, false ];
gas = [1, 1, 1, 1, 1, 1, 1 ];
sz = [1, 1, 1, 1, 1, 1, 1 ];
stor = [false, false, true, true, true, false, false ];
lb = [ 1, 1, 1, 1, 1, 1, 1 ];
ub = [ 7, 7, 7, 7, 7, 7, 7 ];
startstack = [ 'in_0', 'in_1', 'in_2', 'in_3', 'in_4', null, null, null, null, null ];
endstack = [ 's(3)', 's(0)', null, null, null, null, null, null, null, null ];
